p cnf 12 13
7 5 -2 4 0
-11 -1 0
7 -4 8 -11 0
-3 -2 -12 10 4 -1 7 9 -5 0
1 -2 0
1 -9 7 -12 0
-7 -6 1 5 -9 -10 12 -8 -4 2 0
-9 -11 10 7 6 2 5 -4 -8 0
7 -9 6 0
2 -6 -8 -4 1 12 5 -3 9 0
1 9 8 0
6 -3 -2 0
-12 -2 -7 -11 0
